DIM: 16
FLOW: 
0 0 0 1 1 0 0 0 0 0 0 0 0 0 0 0
0 0 0 0 0 0 1 0 1 0 0 1 0 0 1 0
0 0 0 0 0 0 0 0 0 0 0 0 1 0 1 0
1 0 0 0 1 0 0 0 0 0 0 0 0 0 0 0
1 0 0 1 0 0 0 0 0 0 0 0 0 0 0 0
0 0 0 0 0 0 0 0 0 0 0 0 0 0 0 0
0 1 0 0 0 0 0 0 1 0 0 1 0 0 1 0
0 0 0 0 0 0 0 0 0 2 0 0 0 0 0 0
0 1 0 0 0 0 1 0 0 0 0 2 0 0 1 0
0 0 0 0 0 0 0 2 0 0 1 0 0 0 0 0
0 0 0 0 0 0 0 0 0 1 0 0 0 1 0 0
0 1 0 0 0 0 1 0 2 0 0 0 1 1 1 0
0 0 1 0 0 0 0 0 0 0 0 1 0 1 0 0
0 0 0 0 0 0 0 0 0 0 1 1 1 0 0 0
0 1 1 0 0 0 1 0 1 0 0 1 0 0 0 0
0 0 0 0 0 0 0 0 0 0 0 0 0 0 0 0
DISTANCE: 
0 0 0 1 0 1 1 2 0 1 1 2 1 2 2 3
0 0 1 0 1 0 2 1 1 0 2 1 2 1 3 2
0 1 0 0 1 2 0 1 1 2 0 1 2 3 1 2
1 0 0 0 2 1 1 0 2 1 1 0 3 2 2 1
0 1 1 2 0 0 0 1 1 2 2 3 0 1 1 2
1 0 2 1 0 0 1 0 2 1 3 2 1 0 2 1
1 2 0 1 0 1 0 0 2 3 1 2 1 2 0 1
2 1 1 0 1 0 0 0 3 2 2 1 2 1 1 0
0 1 1 2 1 2 2 3 0 0 0 1 0 1 1 2
1 0 2 1 2 1 3 2 0 0 1 0 1 0 2 1
1 2 0 1 2 3 1 2 0 1 0 0 1 2 0 1
2 1 1 0 3 2 2 1 1 0 0 0 2 1 1 0
1 2 2 3 0 1 1 2 0 1 1 2 0 0 0 1
2 1 3 2 1 0 2 1 1 0 2 1 0 0 1 0
2 3 1 2 1 2 0 1 1 2 0 1 0 1 0 0
3 2 2 1 2 1 1 0 2 1 1 0 1 0 0 0
OPT_OBJ: 16
OPT_SOLUTION: 
14 2 12 5 6 16 8 10 3 9 13 7 11 15 4 1 